10J3M/DAT/10J3MULX-13.dat
10 3
4.6036 2.1456
1.8051 1.3435
1.5182 1.2322
28.7993 5.3665
49.9698 7.0689
47.6755 6.9047
13.4806 3.6716
49.1687 7.012
19.8032 4.4501
32.4323 5.6949
14.9633