10J3M/SOL/10J3MULX-13.sol
solution status: optimal solution found
objective value:                              76.8329
x#1#2                               0.709240682325372 	(obj:0)
x#1#3                               0.290759317674628 	(obj:0)
x#2#2                                               1 	(obj:0)
x#3#1                                               1 	(obj:0)
x#4#1                             0.00688302457179526 	(obj:0)
x#4#3                               0.993116975428205 	(obj:0)
x#5#1                               0.999225487771583 	(obj:0)
x#5#3                            0.000774512228416735 	(obj:0)
x#6#2                               0.919379973823899 	(obj:0)
x#6#3                              0.0806200261761008 	(obj:0)
x#7#3                                               1 	(obj:0)
x#8#2                                               1 	(obj:0)
x#9#3                                               1 	(obj:0)
x#10#1                                              1 	(obj:0)
z                                             76.8329 	(obj:1)
